* ENCODING=ISO-8859-1
NAME          CPLEX
ROWS
 N  obj1    
 G  c1      
 G  c2      
 G  c3      
 G  c4      
 G  c5      
 G  c6      
 G  c7      
 G  c8      
 G  c9      
 G  c10     
 G  c11     
 G  c12     
 G  c13     
 G  c14     
 G  c15     
 G  c16     
 G  c17     
 G  c18     
 G  c19     
 G  c20     
 G  c21     
 G  c22     
 G  c23     
 G  c24     
 G  c25     
 G  c26     
 G  c27     
 G  c28     
 G  c29     
 G  c30     
 G  c31     
 G  c32     
 G  c33     
 G  c34     
 G  c35     
 G  c36     
 G  c37     
 G  c38     
 G  c39     
 G  c40     
 G  c41     
 G  c42     
 G  c43     
 G  c44     
 G  c45     
 G  c46     
 G  c47     
 G  c48     
 G  c49     
 G  c50     
COLUMNS
    MARK0000  'MARKER'                 'INTORG'
    x1        obj1                            1
    x1        c34                           592
    x2        obj1                            1
    x2        c22                           662
    x2        c29                           820
    x2        c30                           656
    x2        c43                           473
    x3        obj1                            1
    x3        c20                           214
    x3        c29                           996
    x3        c40                           252
    x4        obj1                            1
    x4        c5                            734
    x4        c26                           918
    x5        obj1                            1
    x5        c8                            443
    x5        c12                           424
    x5        c32                           679
    x6        obj1                            1
    x6        c4                            162
    x6        c6                            676
    x6        c9                            450
    x6        c16                           204
    x6        c17                           993
    x6        c32                           519
    x7        obj1                            1
    x7        c1                            883
    x7        c25                           892
    x7        c28                           506
    x7        c42                           918
    x7        c47                           662
    x7        c48                           355
    x8        obj1                            1
    x8        c37                           976
    x8        c39                           830
    x8        c46                           533
    x9        obj1                            1
    x9        c4                            489
    x9        c15                           106
    x9        c21                           336
    x9        c31                           815
    x9        c34                           994
    x9        c40                           278
    x9        c43                           534
    x10       obj1                            1
    x10       c5                            684
    x10       c6                            445
    x10       c13                           614
    x10       c24                           408
    x10       c38                           393
    x10       c50                           187
    x11       obj1                            1
    x11       c1                            898
    x11       c8                            315
    x11       c16                           832
    x11       c21                           718
    x11       c30                           583
    x11       c31                           924
    x11       c37                           860
    x11       c39                           168
    x12       obj1                            1
    x12       c4                            533
    x12       c35                           629
    x12       c48                           129
    x13       obj1                            1
    x13       c21                           474
    x13       c35                           914
    x13       c40                           124
    x14       obj1                            1
    x14       c1                            270
    x14       c6                            119
    x14       c8                            512
    x14       c16                           586
    x14       c21                           113
    x14       c27                           206
    x15       obj1                            1
    x15       c2                            147
    x15       c5                            359
    x15       c9                            941
    x15       c16                           513
    x15       c33                           985
    x15       c47                           769
    x16       obj1                            1
    x16       c3                            174
    x16       c7                            831
    x16       c16                           413
    x16       c20                           902
    x16       c24                           539
    x16       c26                           181
    x16       c30                           605
    x17       obj1                            1
    x17       c23                           848
    x17       c29                           375
    x17       c32                           518
    x17       c33                           596
    x17       c35                           171
    x17       c47                           574
    x18       obj1                            1
    x18       c3                            300
    x18       c11                           344
    x18       c15                           995
    x18       c29                           479
    x18       c48                           945
    x19       obj1                            1
    x19       c30                           509
    x19       c38                           906
    x19       c39                           484
    x19       c45                           887
    x19       c48                           175
    x20       obj1                            1
    x20       c5                            594
    x20       c16                           833
    x20       c25                           613
    x20       c28                           685
    x20       c43                           768
    x20       c45                           143
    x20       c46                           843
    x20       c48                           654
    x21       obj1                            1
    x21       c29                           263
    x21       c32                           885
    x21       c33                           680
    x21       c37                           777
    x21       c43                           680
    x21       c44                           375
    x22       obj1                            1
    x22       c8                            369
    x22       c11                           981
    x22       c14                           600
    x22       c30                           910
    x22       c50                           876
    x23       obj1                            1
    x23       c4                            149
    x23       c9                            541
    x23       c12                           170
    x23       c17                           883
    x23       c28                           667
    x24       obj1                            1
    x24       c11                           680
    x24       c21                           582
    x25       obj1                            1
    x25       c7                            496
    x25       c11                           183
    x25       c37                           738
    x26       obj1                            1
    x26       c6                            818
    x26       c24                           485
    x26       c39                           793
    x26       c44                           755
    x26       c50                           841
    x27       obj1                            1
    x27       c9                            696
    x27       c10                           170
    x27       c15                           929
    x27       c31                           836
    x27       c48                           303
    x28       obj1                            1
    x28       c10                           866
    x28       c14                           722
    x28       c20                           209
    x29       obj1                            1
    x29       c18                           308
    x29       c28                           865
    x29       c29                           361
    x29       c40                           121
    x30       obj1                            1
    x30       c2                            359
    x30       c8                            209
    x30       c30                           113
    x30       c36                           142
    x31       obj1                            1
    x31       c9                            126
    x31       c20                           494
    x32       obj1                            1
    x32       c14                           722
    x32       c18                           736
    x32       c19                           626
    x32       c22                           765
    x32       c32                           266
    x32       c34                           638
    x32       c41                           414
    x32       c45                           208
    x33       obj1                            1
    x33       c6                            161
    x33       c11                           261
    x33       c18                           975
    x33       c32                           596
    x33       c36                           697
    x33       c43                           301
    x34       obj1                            1
    x34       c41                           489
    x35       obj1                            1
    x35       c15                           994
    x35       c30                           768
    x36       obj1                            1
    x36       c9                            979
    x36       c12                           197
    x36       c14                           683
    x36       c23                           314
    x36       c29                           715
    x36       c36                           803
    x36       c43                           273
    x36       c46                           929
    x37       obj1                            1
    x37       c14                           438
    x37       c17                           387
    x37       c37                           427
    x37       c39                           657
    x37       c42                           490
    x37       c50                           889
    x38       obj1                            1
    x38       c5                            889
    x38       c19                           421
    x38       c42                           499
    x38       c47                           694
    x39       obj1                            1
    x39       c15                           207
    x39       c27                           593
    x40       obj1                            1
    x40       c2                            196
    x40       c14                           442
    x41       obj1                            1
    x41       c3                            656
    x41       c6                            990
    x41       c7                            867
    x41       c24                           189
    x41       c27                           233
    x41       c28                           207
    x41       c41                           187
    x42       obj1                            1
    x42       c12                           296
    x42       c19                           219
    x42       c26                           187
    x42       c40                           453
    x43       obj1                            1
    x43       c1                            905
    x43       c4                            800
    x43       c5                            318
    x43       c9                            687
    x43       c31                           441
    x43       c33                           308
    x44       obj1                            1
    x44       c4                            772
    x44       c13                           962
    x44       c19                           833
    x44       c20                           735
    x44       c42                           427
    x44       c43                           140
    x44       c50                           708
    x45       obj1                            1
    x45       c4                            398
    x45       c8                            412
    x45       c45                           377
    x46       obj1                            1
    x46       c27                           759
    x46       c28                           640
    x46       c45                           584
    x46       c49                           742
    x47       obj1                            1
    x47       c23                           795
    x47       c32                           147
    x47       c34                           168
    x47       c40                           779
    x47       c42                           179
    x48       obj1                            1
    x48       c21                           546
    x48       c48                           114
    x49       obj1                            1
    x49       c3                            884
    x49       c8                            173
    x49       c14                           613
    x49       c25                           745
    x49       c28                           927
    x49       c38                           684
    x49       c49                           118
    x50       obj1                            1
    x50       c10                           702
    x50       c13                           444
    x50       c22                           272
    x50       c37                           324
    x50       c44                           300
    x50       c49                           750
    MARK0001  'MARKER'                 'INTEND'
RHS
    rhs       c1                           1478
    rhs       c2                            351
    rhs       c3                           1007
    rhs       c4                           1652
    rhs       c5                           1789
    rhs       c6                           1605
    rhs       c7                           1097
    rhs       c8                           1217
    rhs       c9                           2210
    rhs       c10                           869
    rhs       c11                          1225
    rhs       c12                           544
    rhs       c13                          1010
    rhs       c14                          2110
    rhs       c15                          1616
    rhs       c16                          1691
    rhs       c17                          1132
    rhs       c18                          1010
    rhs       c19                          1050
    rhs       c20                          1277
    rhs       c21                          1385
    rhs       c22                           850
    rhs       c23                           979
    rhs       c24                           811
    rhs       c25                          1125
    rhs       c26                           643
    rhs       c27                           896
    rhs       c28                          2249
    rhs       c29                          2005
    rhs       c30                          2072
    rhs       c31                          1508
    rhs       c32                          1805
    rhs       c33                          1285
    rhs       c34                          1196
    rhs       c35                           857
    rhs       c36                           821
    rhs       c37                          2051
    rhs       c38                           992
    rhs       c39                          1466
    rhs       c40                          1004
    rhs       c41                           545
    rhs       c42                          1257
    rhs       c43                          1585
    rhs       c44                           715
    rhs       c45                          1100
    rhs       c46                          1153
    rhs       c47                          1350
    rhs       c48                          1338
    rhs       c49                           805
    rhs       c50                          1751
BOUNDS
 LI bnd       x1        0
 LI bnd       x2        0
 LI bnd       x3        0
 LI bnd       x4        0
 LI bnd       x5        0
 LI bnd       x6        0
 LI bnd       x7        0
 LI bnd       x8        0
 LI bnd       x9        0
 LI bnd       x10       0
 LI bnd       x11       0
 LI bnd       x12       0
 LI bnd       x13       0
 LI bnd       x14       0
 LI bnd       x15       0
 LI bnd       x16       0
 LI bnd       x17       0
 LI bnd       x18       0
 LI bnd       x19       0
 LI bnd       x20       0
 LI bnd       x21       0
 LI bnd       x22       0
 LI bnd       x23       0
 LI bnd       x24       0
 LI bnd       x25       0
 LI bnd       x26       0
 LI bnd       x27       0
 LI bnd       x28       0
 LI bnd       x29       0
 LI bnd       x30       0
 LI bnd       x31       0
 LI bnd       x32       0
 LI bnd       x33       0
 LI bnd       x34       0
 LI bnd       x35       0
 LI bnd       x36       0
 LI bnd       x37       0
 LI bnd       x38       0
 LI bnd       x39       0
 LI bnd       x40       0
 LI bnd       x41       0
 LI bnd       x42       0
 LI bnd       x43       0
 LI bnd       x44       0
 LI bnd       x45       0
 LI bnd       x46       0
 LI bnd       x47       0
 LI bnd       x48       0
 LI bnd       x49       0
 LI bnd       x50       0
ENDATA
